
#######################################################################
#
#                 Cambridge Crystallographic Data Centre
#                                CCDC 
#
#######################################################################
#
# If this CIF has been generated directly or indirectly from an entry in the 
# Cambridge Structural Database, then it will include bibliographic, chemical, 
# crystal, experimental, refinement or atomic coordinate data resulting from 
# the CCDC's data processing and validation procedures. Files generated from 
# CSD entries are Copyright 2012 Cambridge Crystallographic Data Centre. They 
# may be used in bona fide research applications only, and may not be copied or 
# further disseminated in any form, whether machine-readable or not, except for 
# the purposes of generating routine backup copies on your local computer 
# system.
# 
# Files arising from any other source may also contain material that is the 
# copyright of third parties, including the originator, and you should check 
# with the originator concerning the permitted uses of the information 
# contained in this CIF.
#
# For further information on the CCDC and the free tools enCIFer and Mercury
# for validating and visualising CIF files, please visit www.ccdc.cam.ac.uk
#
#######################################################################

data_QANRUT
_audit_creation_date             2005-10-13
_database_code_depnum_ccdc_archive 'CCDC 282210'
_journal_coeditor_code           'IUCr GG1265'
_chemical_formula_moiety         'C5 H9 N1 O2'
_chemical_name_systematic        DL-Proline
_journal_coden_Cambridge         591
_journal_volume                  61
_journal_year                    2005
_journal_page_first              o506
_journal_name_full               'Acta Crystallogr.,Sect.C:Cryst.Struct.Commun.'
loop_
_publ_author_name
S.Myung
M.Pink
M.-H.Baik
D.E.Clemmer
_chemical_absolute_configuration unk
_diffrn_ambient_temperature      120
_exptl_crystal_density_meas      1.409
_exptl_crystal_density_diffrn    1.409
#These two values have been output from a single CSD field.
_refine_ls_R_factor_gt           0.0395
_refine_ls_wR_factor_gt          0.0395
_diffrn_radiation_probe          x-ray
_symmetry_cell_setting           monoclinic
_symmetry_space_group_name_H-M   'P 21/c'
_symmetry_Int_Tables_number      14
loop_
_symmetry_equiv_pos_site_id
_symmetry_equiv_pos_as_xyz
1 x,y,z
2 -x,1/2+y,1/2-z
3 -x,-y,-z
4 x,1/2-y,1/2+z
_cell_length_a                   8.9906(6)
_cell_length_b                   5.2987(4)
_cell_length_c                   11.4786(8)
_cell_angle_alpha                90
_cell_angle_beta                 97.041(2)
_cell_angle_gamma                90
_cell_volume                     542.699
_exptl_crystal_colour            colorless
_exptl_crystal_description       block
_chemical_melting_point          '481 K'
_cell_formula_units_Z            4
_exptl_crystal_recrystallization_method 'dry methanol'
loop_
_atom_site_label
_atom_site_type_symbol
_atom_site_fract_x
_atom_site_fract_y
_atom_site_fract_z
C1 C 0.14911(15) 0.6303(3) 0.20445(11)
O1 O 0.08960(12) 0.72120(18) 0.10706(9)
O2 O 0.18382(13) 0.74758(19) 0.29715(9)
N1 N 0.13004(14) 0.2269(2) 0.09138(11)
H1 H 0.1100(19) 0.059(4) 0.1016(15)
H2 H 0.044(2) 0.295(4) 0.0555(16)
C2 C 0.18069(15) 0.3453(3) 0.20726(11)
H3 H 0.1307 0.2626 0.2705
C3 C 0.34771(16) 0.2873(3) 0.22334(13)
H4 H 0.3669 0.1100 0.2480
H5 H 0.4025 0.4008 0.2823
C4 C 0.39296(17) 0.3345(3) 0.10138(13)
H6 H 0.4830 0.2351 0.0893
H7 H 0.4141 0.5156 0.0901
C5 C 0.25664(19) 0.2483(3) 0.01675(13)
H8 H 0.2323 0.3736 -0.0467
H9 H 0.2764 0.0834 -0.0189

#END

