
#######################################################################
#
#                 Cambridge Crystallographic Data Centre
#                                CCDC 
#
#######################################################################
#
# If this CIF has been generated directly or indirectly from an entry in the 
# Cambridge Structural Database, then it will include bibliographic, chemical, 
# crystal, experimental, refinement or atomic coordinate data resulting from 
# the CCDC's data processing and validation procedures. Files generated from 
# CSD entries are Copyright 2012 Cambridge Crystallographic Data Centre. They 
# may be used in bona fide research applications only, and may not be copied or 
# further disseminated in any form, whether machine-readable or not, except for 
# the purposes of generating routine backup copies on your local computer 
# system.
# 
# Files arising from any other source may also contain material that is the 
# copyright of third parties, including the originator, and you should check 
# with the originator concerning the permitted uses of the information 
# contained in this CIF.
#
# For further information on the CCDC and the free tools enCIFer and Mercury
# for validating and visualising CIF files, please visit www.ccdc.cam.ac.uk
#
#######################################################################

data_PROLIN
_audit_creation_date             1971-12-31
_database_code_NBS               522817
_chemical_formula_moiety         'C5 H9 N1 O2'
_chemical_name_systematic        L-Proline
_journal_coden_Cambridge         41
_journal_volume                  10
_journal_year                    1965
_journal_page_first              833
_journal_name_full               Kristallografiya(Russ.)(Crystallogr.Rep.)
loop_
_publ_author_name
R.L.Kayushina
B.K.Vainshtein
_chemical_absolute_configuration unk
_diffrn_ambient_temperature      295
_exptl_crystal_density_diffrn    1.412
#These two values have been output from a single CSD field.
_refine_ls_R_factor_gt           0.169
_refine_ls_wR_factor_gt          0.169
_diffrn_radiation_probe          x-ray
_symmetry_cell_setting           orthorhombic
_symmetry_space_group_name_H-M   'P 21 21 21'
_symmetry_Int_Tables_number      19
loop_
_symmetry_equiv_pos_site_id
_symmetry_equiv_pos_as_xyz
1 x,y,z
2 1/2+x,1/2-y,-z
3 -x,1/2+y,1/2-z
4 1/2-x,-y,1/2+z
_cell_length_a                   11.550
_cell_length_b                   9.020
_cell_length_c                   5.200
_cell_angle_alpha                90
_cell_angle_beta                 90
_cell_angle_gamma                90
_cell_volume                     541.741
_cell_formula_units_Z            4
loop_
_atom_site_label
_atom_site_type_symbol
_atom_site_fract_x
_atom_site_fract_y
_atom_site_fract_z
C1 C 0.02900 0.26800 0.13100
C2 C 0.05500 0.29500 0.41500
C3 C 0.15300 0.40600 0.45000
C4 C 0.25900 0.30500 0.41300
C5 C 0.22600 0.16300 0.55700
H1 H -0.01900 0.33100 0.53100
H2 H 0.15200 0.44800 0.64800
H3 H 0.15100 0.48700 0.29100
H4 H 0.33300 0.36400 0.49700
H5 H 0.26800 0.26000 0.21700
H6 H 0.24500 0.17700 0.76300
H7 H 0.27000 0.06700 0.46900
H8 H 0.06600 0.12800 0.69400
H9 H 0.08700 0.06700 0.39500
N1 N 0.09900 0.14800 0.52300
O1 O 0.05700 0.14400 0.03100
O2 O -0.02300 0.36400 -0.00100

#END

